Test: battleship-16-31-sat.cnf
Options: -no-inverting-opt -sym-var-bump
WARNING: for repeatability, setting FPU to use double precision
============================[ Problem Statistics ]=============================
|                                                                             |
|  Number of symmetries:           25                                         |
|  Number of invertingSyms:         0                                         |
|  Number of variables:           496                                         |
|  Number of clauses:            3976                                         |
|  Parse time:                   0.00 s                                       |
|                                                                             |
============================[ Search Statistics ]==============================
| Conflicts |          ORIGINAL         |          LEARNT          | Progress |
|           |    Vars  Clauses Literals |    Limit  Clauses Lit/Cl |          |
===============================================================================
|       100 |     496     3976    15376 |     1457      132    127 |  0.000 % |
|       250 |     496     3976    15376 |     1603      319    137 |  0.000 % |
|       475 |     496     3976    15376 |     1764      613    127 |  0.000 % |
|       812 |     496     3976    15376 |     1940     1037    128 |  0.000 % |
|      1318 |     496     3976    15376 |     2134     1616    136 |  0.000 % |
|      2077 |     496     3976    15376 |     2347     1410    130 |  0.000 % |
|      3216 |     496     3976    15376 |     2582     1470    154 |  0.000 % |
|      4924 |     496     3976    15376 |     2840     2036    140 |  0.000 % |
|      7486 |     496     3976    15376 |     3125     2068    175 |  0.000 % |
|     11330 |     496     3976    15376 |     3437     1665    107 |  0.000 % |
|     17096 |     496     3976    15376 |     3781     2694    152 |  0.000 % |
|     25745 |     496     3976    15376 |     4159     2525    156 |  0.000 % |
|     38719 |     496     3976    15376 |     4575     4009    157 |  0.000 % |
|     58180 |     496     3976    15376 |     5032     4348    149 |  0.000 % |
|     87372 |     496     3976    15376 |     5536     3888    183 |  0.000 % |
|    131161 |     496     3976    15376 |     6089     5140    172 |  0.000 % |
|    196845 |     496     3976    15376 |     6698     5685    209 |  0.000 % |
|    295371 |     496     3976    15376 |     7368     4753    178 |  0.000 % |
|    443160 |     496     3976    15376 |     8105     5723    218 |  0.000 % |
|    664843 |     496     3976    15376 |     8916     6642    168 |  0.000 % |
|    997368 |     496     3976    15376 |     9807     7861    144 |  0.000 % |
|   1496156 |     496     3976    15376 |    10788     7235    166 |  0.000 % |
|   2244338 |     496     3976    15376 |    11867    10996    233 |  0.000 % |
===============================================================================
restarts              : 4421
conflicts             : 2585010        (11039 /sec)
symconflicts          : 101277         (432 /sec)
decisions             : 5612399        (0.00 % random) (23968 /sec)
propagations          : 58924446       (251635 /sec)
sympropagations       : 477273         (2038 /sec)
conflict literals     : 526030079      (4.26 % deleted)
literals     : 526030079      (4.26 % deleted)

HEURISTIC USAGES
random                : 0           
activity w/ lookahead : 0           
activity no lookahead : 0           
original sp           : 5612398     
sym count             : 0           

Memory used           : 70.00 MB
CPU time              : 234.167 s

SATISFIABLE
